; phase2: flip-only optimization
(set-logic QF_LIA)
(set-option :produce-models true)
(declare-fun flip_0_0 () Bool)
(declare-fun flip_0_1 () Bool)
(declare-fun flip_0_2 () Bool)
(declare-fun flip_0_3 () Bool)
(declare-fun flip_0_4 () Bool)
(declare-fun flip_1_0 () Bool)
(declare-fun flip_1_1 () Bool)
(declare-fun flip_1_2 () Bool)
(declare-fun flip_1_3 () Bool)
(declare-fun flip_1_4 () Bool)
(declare-fun flip_2_0 () Bool)
(declare-fun flip_2_1 () Bool)
(declare-fun flip_2_2 () Bool)
(declare-fun flip_2_3 () Bool)
(declare-fun flip_2_4 () Bool)
(define-fun home_eff_0_0 () Int (ite flip_0_0 6 1))
(define-fun away_eff_0_0 () Int (ite flip_0_0 1 6))
(define-fun home_eff_0_1 () Int (ite flip_0_1 5 4))
(define-fun away_eff_0_1 () Int (ite flip_0_1 4 5))
(define-fun home_eff_0_2 () Int (ite flip_0_2 3 6))
(define-fun away_eff_0_2 () Int (ite flip_0_2 6 3))
(define-fun home_eff_0_3 () Int (ite flip_0_3 2 1))
(define-fun away_eff_0_3 () Int (ite flip_0_3 1 2))
(define-fun home_eff_0_4 () Int (ite flip_0_4 3 2))
(define-fun away_eff_0_4 () Int (ite flip_0_4 2 3))
(define-fun home_eff_1_0 () Int (ite flip_1_0 4 3))
(define-fun away_eff_1_0 () Int (ite flip_1_0 3 4))
(define-fun home_eff_1_1 () Int (ite flip_1_1 6 2))
(define-fun away_eff_1_1 () Int (ite flip_1_1 2 6))
(define-fun home_eff_1_2 () Int (ite flip_1_2 5 1))
(define-fun away_eff_1_2 () Int (ite flip_1_2 1 5))
(define-fun home_eff_1_3 () Int (ite flip_1_3 5 3))
(define-fun away_eff_1_3 () Int (ite flip_1_3 3 5))
(define-fun home_eff_1_4 () Int (ite flip_1_4 4 1))
(define-fun away_eff_1_4 () Int (ite flip_1_4 1 4))
(define-fun home_eff_2_0 () Int (ite flip_2_0 5 2))
(define-fun away_eff_2_0 () Int (ite flip_2_0 2 5))
(define-fun home_eff_2_1 () Int (ite flip_2_1 1 3))
(define-fun away_eff_2_1 () Int (ite flip_2_1 3 1))
(define-fun home_eff_2_2 () Int (ite flip_2_2 4 2))
(define-fun away_eff_2_2 () Int (ite flip_2_2 2 4))
(define-fun home_eff_2_3 () Int (ite flip_2_3 6 4))
(define-fun away_eff_2_3 () Int (ite flip_2_3 4 6))
(define-fun home_eff_2_4 () Int (ite flip_2_4 6 5))
(define-fun away_eff_2_4 () Int (ite flip_2_4 5 6))
(assert (<= (- (+ (ite (= home_eff_0_0 1) 1 0) (ite (= home_eff_0_1 1) 1 0) (ite (= home_eff_0_2 1) 1 0) (ite (= home_eff_0_3 1) 1 0) (ite (= home_eff_0_4 1) 1 0) (ite (= home_eff_1_0 1) 1 0) (ite (= home_eff_1_1 1) 1 0) (ite (= home_eff_1_2 1) 1 0) (ite (= home_eff_1_3 1) 1 0) (ite (= home_eff_1_4 1) 1 0) (ite (= home_eff_2_0 1) 1 0) (ite (= home_eff_2_1 1) 1 0) (ite (= home_eff_2_2 1) 1 0) (ite (= home_eff_2_3 1) 1 0) (ite (= home_eff_2_4 1) 1 0)) (+ (ite (= away_eff_0_0 1) 1 0) (ite (= away_eff_0_1 1) 1 0) (ite (= away_eff_0_2 1) 1 0) (ite (= away_eff_0_3 1) 1 0) (ite (= away_eff_0_4 1) 1 0) (ite (= away_eff_1_0 1) 1 0) (ite (= away_eff_1_1 1) 1 0) (ite (= away_eff_1_2 1) 1 0) (ite (= away_eff_1_3 1) 1 0) (ite (= away_eff_1_4 1) 1 0) (ite (= away_eff_2_0 1) 1 0) (ite (= away_eff_2_1 1) 1 0) (ite (= away_eff_2_2 1) 1 0) (ite (= away_eff_2_3 1) 1 0) (ite (= away_eff_2_4 1) 1 0))) 1))
(assert (<= (- (+ (ite (= away_eff_0_0 1) 1 0) (ite (= away_eff_0_1 1) 1 0) (ite (= away_eff_0_2 1) 1 0) (ite (= away_eff_0_3 1) 1 0) (ite (= away_eff_0_4 1) 1 0) (ite (= away_eff_1_0 1) 1 0) (ite (= away_eff_1_1 1) 1 0) (ite (= away_eff_1_2 1) 1 0) (ite (= away_eff_1_3 1) 1 0) (ite (= away_eff_1_4 1) 1 0) (ite (= away_eff_2_0 1) 1 0) (ite (= away_eff_2_1 1) 1 0) (ite (= away_eff_2_2 1) 1 0) (ite (= away_eff_2_3 1) 1 0) (ite (= away_eff_2_4 1) 1 0)) (+ (ite (= home_eff_0_0 1) 1 0) (ite (= home_eff_0_1 1) 1 0) (ite (= home_eff_0_2 1) 1 0) (ite (= home_eff_0_3 1) 1 0) (ite (= home_eff_0_4 1) 1 0) (ite (= home_eff_1_0 1) 1 0) (ite (= home_eff_1_1 1) 1 0) (ite (= home_eff_1_2 1) 1 0) (ite (= home_eff_1_3 1) 1 0) (ite (= home_eff_1_4 1) 1 0) (ite (= home_eff_2_0 1) 1 0) (ite (= home_eff_2_1 1) 1 0) (ite (= home_eff_2_2 1) 1 0) (ite (= home_eff_2_3 1) 1 0) (ite (= home_eff_2_4 1) 1 0))) 1))
(assert (<= (- (+ (ite (= home_eff_0_0 2) 1 0) (ite (= home_eff_0_1 2) 1 0) (ite (= home_eff_0_2 2) 1 0) (ite (= home_eff_0_3 2) 1 0) (ite (= home_eff_0_4 2) 1 0) (ite (= home_eff_1_0 2) 1 0) (ite (= home_eff_1_1 2) 1 0) (ite (= home_eff_1_2 2) 1 0) (ite (= home_eff_1_3 2) 1 0) (ite (= home_eff_1_4 2) 1 0) (ite (= home_eff_2_0 2) 1 0) (ite (= home_eff_2_1 2) 1 0) (ite (= home_eff_2_2 2) 1 0) (ite (= home_eff_2_3 2) 1 0) (ite (= home_eff_2_4 2) 1 0)) (+ (ite (= away_eff_0_0 2) 1 0) (ite (= away_eff_0_1 2) 1 0) (ite (= away_eff_0_2 2) 1 0) (ite (= away_eff_0_3 2) 1 0) (ite (= away_eff_0_4 2) 1 0) (ite (= away_eff_1_0 2) 1 0) (ite (= away_eff_1_1 2) 1 0) (ite (= away_eff_1_2 2) 1 0) (ite (= away_eff_1_3 2) 1 0) (ite (= away_eff_1_4 2) 1 0) (ite (= away_eff_2_0 2) 1 0) (ite (= away_eff_2_1 2) 1 0) (ite (= away_eff_2_2 2) 1 0) (ite (= away_eff_2_3 2) 1 0) (ite (= away_eff_2_4 2) 1 0))) 1))
(assert (<= (- (+ (ite (= away_eff_0_0 2) 1 0) (ite (= away_eff_0_1 2) 1 0) (ite (= away_eff_0_2 2) 1 0) (ite (= away_eff_0_3 2) 1 0) (ite (= away_eff_0_4 2) 1 0) (ite (= away_eff_1_0 2) 1 0) (ite (= away_eff_1_1 2) 1 0) (ite (= away_eff_1_2 2) 1 0) (ite (= away_eff_1_3 2) 1 0) (ite (= away_eff_1_4 2) 1 0) (ite (= away_eff_2_0 2) 1 0) (ite (= away_eff_2_1 2) 1 0) (ite (= away_eff_2_2 2) 1 0) (ite (= away_eff_2_3 2) 1 0) (ite (= away_eff_2_4 2) 1 0)) (+ (ite (= home_eff_0_0 2) 1 0) (ite (= home_eff_0_1 2) 1 0) (ite (= home_eff_0_2 2) 1 0) (ite (= home_eff_0_3 2) 1 0) (ite (= home_eff_0_4 2) 1 0) (ite (= home_eff_1_0 2) 1 0) (ite (= home_eff_1_1 2) 1 0) (ite (= home_eff_1_2 2) 1 0) (ite (= home_eff_1_3 2) 1 0) (ite (= home_eff_1_4 2) 1 0) (ite (= home_eff_2_0 2) 1 0) (ite (= home_eff_2_1 2) 1 0) (ite (= home_eff_2_2 2) 1 0) (ite (= home_eff_2_3 2) 1 0) (ite (= home_eff_2_4 2) 1 0))) 1))
(assert (<= (- (+ (ite (= home_eff_0_0 3) 1 0) (ite (= home_eff_0_1 3) 1 0) (ite (= home_eff_0_2 3) 1 0) (ite (= home_eff_0_3 3) 1 0) (ite (= home_eff_0_4 3) 1 0) (ite (= home_eff_1_0 3) 1 0) (ite (= home_eff_1_1 3) 1 0) (ite (= home_eff_1_2 3) 1 0) (ite (= home_eff_1_3 3) 1 0) (ite (= home_eff_1_4 3) 1 0) (ite (= home_eff_2_0 3) 1 0) (ite (= home_eff_2_1 3) 1 0) (ite (= home_eff_2_2 3) 1 0) (ite (= home_eff_2_3 3) 1 0) (ite (= home_eff_2_4 3) 1 0)) (+ (ite (= away_eff_0_0 3) 1 0) (ite (= away_eff_0_1 3) 1 0) (ite (= away_eff_0_2 3) 1 0) (ite (= away_eff_0_3 3) 1 0) (ite (= away_eff_0_4 3) 1 0) (ite (= away_eff_1_0 3) 1 0) (ite (= away_eff_1_1 3) 1 0) (ite (= away_eff_1_2 3) 1 0) (ite (= away_eff_1_3 3) 1 0) (ite (= away_eff_1_4 3) 1 0) (ite (= away_eff_2_0 3) 1 0) (ite (= away_eff_2_1 3) 1 0) (ite (= away_eff_2_2 3) 1 0) (ite (= away_eff_2_3 3) 1 0) (ite (= away_eff_2_4 3) 1 0))) 1))
(assert (<= (- (+ (ite (= away_eff_0_0 3) 1 0) (ite (= away_eff_0_1 3) 1 0) (ite (= away_eff_0_2 3) 1 0) (ite (= away_eff_0_3 3) 1 0) (ite (= away_eff_0_4 3) 1 0) (ite (= away_eff_1_0 3) 1 0) (ite (= away_eff_1_1 3) 1 0) (ite (= away_eff_1_2 3) 1 0) (ite (= away_eff_1_3 3) 1 0) (ite (= away_eff_1_4 3) 1 0) (ite (= away_eff_2_0 3) 1 0) (ite (= away_eff_2_1 3) 1 0) (ite (= away_eff_2_2 3) 1 0) (ite (= away_eff_2_3 3) 1 0) (ite (= away_eff_2_4 3) 1 0)) (+ (ite (= home_eff_0_0 3) 1 0) (ite (= home_eff_0_1 3) 1 0) (ite (= home_eff_0_2 3) 1 0) (ite (= home_eff_0_3 3) 1 0) (ite (= home_eff_0_4 3) 1 0) (ite (= home_eff_1_0 3) 1 0) (ite (= home_eff_1_1 3) 1 0) (ite (= home_eff_1_2 3) 1 0) (ite (= home_eff_1_3 3) 1 0) (ite (= home_eff_1_4 3) 1 0) (ite (= home_eff_2_0 3) 1 0) (ite (= home_eff_2_1 3) 1 0) (ite (= home_eff_2_2 3) 1 0) (ite (= home_eff_2_3 3) 1 0) (ite (= home_eff_2_4 3) 1 0))) 1))
(assert (<= (- (+ (ite (= home_eff_0_0 4) 1 0) (ite (= home_eff_0_1 4) 1 0) (ite (= home_eff_0_2 4) 1 0) (ite (= home_eff_0_3 4) 1 0) (ite (= home_eff_0_4 4) 1 0) (ite (= home_eff_1_0 4) 1 0) (ite (= home_eff_1_1 4) 1 0) (ite (= home_eff_1_2 4) 1 0) (ite (= home_eff_1_3 4) 1 0) (ite (= home_eff_1_4 4) 1 0) (ite (= home_eff_2_0 4) 1 0) (ite (= home_eff_2_1 4) 1 0) (ite (= home_eff_2_2 4) 1 0) (ite (= home_eff_2_3 4) 1 0) (ite (= home_eff_2_4 4) 1 0)) (+ (ite (= away_eff_0_0 4) 1 0) (ite (= away_eff_0_1 4) 1 0) (ite (= away_eff_0_2 4) 1 0) (ite (= away_eff_0_3 4) 1 0) (ite (= away_eff_0_4 4) 1 0) (ite (= away_eff_1_0 4) 1 0) (ite (= away_eff_1_1 4) 1 0) (ite (= away_eff_1_2 4) 1 0) (ite (= away_eff_1_3 4) 1 0) (ite (= away_eff_1_4 4) 1 0) (ite (= away_eff_2_0 4) 1 0) (ite (= away_eff_2_1 4) 1 0) (ite (= away_eff_2_2 4) 1 0) (ite (= away_eff_2_3 4) 1 0) (ite (= away_eff_2_4 4) 1 0))) 1))
(assert (<= (- (+ (ite (= away_eff_0_0 4) 1 0) (ite (= away_eff_0_1 4) 1 0) (ite (= away_eff_0_2 4) 1 0) (ite (= away_eff_0_3 4) 1 0) (ite (= away_eff_0_4 4) 1 0) (ite (= away_eff_1_0 4) 1 0) (ite (= away_eff_1_1 4) 1 0) (ite (= away_eff_1_2 4) 1 0) (ite (= away_eff_1_3 4) 1 0) (ite (= away_eff_1_4 4) 1 0) (ite (= away_eff_2_0 4) 1 0) (ite (= away_eff_2_1 4) 1 0) (ite (= away_eff_2_2 4) 1 0) (ite (= away_eff_2_3 4) 1 0) (ite (= away_eff_2_4 4) 1 0)) (+ (ite (= home_eff_0_0 4) 1 0) (ite (= home_eff_0_1 4) 1 0) (ite (= home_eff_0_2 4) 1 0) (ite (= home_eff_0_3 4) 1 0) (ite (= home_eff_0_4 4) 1 0) (ite (= home_eff_1_0 4) 1 0) (ite (= home_eff_1_1 4) 1 0) (ite (= home_eff_1_2 4) 1 0) (ite (= home_eff_1_3 4) 1 0) (ite (= home_eff_1_4 4) 1 0) (ite (= home_eff_2_0 4) 1 0) (ite (= home_eff_2_1 4) 1 0) (ite (= home_eff_2_2 4) 1 0) (ite (= home_eff_2_3 4) 1 0) (ite (= home_eff_2_4 4) 1 0))) 1))
(assert (<= (- (+ (ite (= home_eff_0_0 5) 1 0) (ite (= home_eff_0_1 5) 1 0) (ite (= home_eff_0_2 5) 1 0) (ite (= home_eff_0_3 5) 1 0) (ite (= home_eff_0_4 5) 1 0) (ite (= home_eff_1_0 5) 1 0) (ite (= home_eff_1_1 5) 1 0) (ite (= home_eff_1_2 5) 1 0) (ite (= home_eff_1_3 5) 1 0) (ite (= home_eff_1_4 5) 1 0) (ite (= home_eff_2_0 5) 1 0) (ite (= home_eff_2_1 5) 1 0) (ite (= home_eff_2_2 5) 1 0) (ite (= home_eff_2_3 5) 1 0) (ite (= home_eff_2_4 5) 1 0)) (+ (ite (= away_eff_0_0 5) 1 0) (ite (= away_eff_0_1 5) 1 0) (ite (= away_eff_0_2 5) 1 0) (ite (= away_eff_0_3 5) 1 0) (ite (= away_eff_0_4 5) 1 0) (ite (= away_eff_1_0 5) 1 0) (ite (= away_eff_1_1 5) 1 0) (ite (= away_eff_1_2 5) 1 0) (ite (= away_eff_1_3 5) 1 0) (ite (= away_eff_1_4 5) 1 0) (ite (= away_eff_2_0 5) 1 0) (ite (= away_eff_2_1 5) 1 0) (ite (= away_eff_2_2 5) 1 0) (ite (= away_eff_2_3 5) 1 0) (ite (= away_eff_2_4 5) 1 0))) 1))
(assert (<= (- (+ (ite (= away_eff_0_0 5) 1 0) (ite (= away_eff_0_1 5) 1 0) (ite (= away_eff_0_2 5) 1 0) (ite (= away_eff_0_3 5) 1 0) (ite (= away_eff_0_4 5) 1 0) (ite (= away_eff_1_0 5) 1 0) (ite (= away_eff_1_1 5) 1 0) (ite (= away_eff_1_2 5) 1 0) (ite (= away_eff_1_3 5) 1 0) (ite (= away_eff_1_4 5) 1 0) (ite (= away_eff_2_0 5) 1 0) (ite (= away_eff_2_1 5) 1 0) (ite (= away_eff_2_2 5) 1 0) (ite (= away_eff_2_3 5) 1 0) (ite (= away_eff_2_4 5) 1 0)) (+ (ite (= home_eff_0_0 5) 1 0) (ite (= home_eff_0_1 5) 1 0) (ite (= home_eff_0_2 5) 1 0) (ite (= home_eff_0_3 5) 1 0) (ite (= home_eff_0_4 5) 1 0) (ite (= home_eff_1_0 5) 1 0) (ite (= home_eff_1_1 5) 1 0) (ite (= home_eff_1_2 5) 1 0) (ite (= home_eff_1_3 5) 1 0) (ite (= home_eff_1_4 5) 1 0) (ite (= home_eff_2_0 5) 1 0) (ite (= home_eff_2_1 5) 1 0) (ite (= home_eff_2_2 5) 1 0) (ite (= home_eff_2_3 5) 1 0) (ite (= home_eff_2_4 5) 1 0))) 1))
(assert (<= (- (+ (ite (= home_eff_0_0 6) 1 0) (ite (= home_eff_0_1 6) 1 0) (ite (= home_eff_0_2 6) 1 0) (ite (= home_eff_0_3 6) 1 0) (ite (= home_eff_0_4 6) 1 0) (ite (= home_eff_1_0 6) 1 0) (ite (= home_eff_1_1 6) 1 0) (ite (= home_eff_1_2 6) 1 0) (ite (= home_eff_1_3 6) 1 0) (ite (= home_eff_1_4 6) 1 0) (ite (= home_eff_2_0 6) 1 0) (ite (= home_eff_2_1 6) 1 0) (ite (= home_eff_2_2 6) 1 0) (ite (= home_eff_2_3 6) 1 0) (ite (= home_eff_2_4 6) 1 0)) (+ (ite (= away_eff_0_0 6) 1 0) (ite (= away_eff_0_1 6) 1 0) (ite (= away_eff_0_2 6) 1 0) (ite (= away_eff_0_3 6) 1 0) (ite (= away_eff_0_4 6) 1 0) (ite (= away_eff_1_0 6) 1 0) (ite (= away_eff_1_1 6) 1 0) (ite (= away_eff_1_2 6) 1 0) (ite (= away_eff_1_3 6) 1 0) (ite (= away_eff_1_4 6) 1 0) (ite (= away_eff_2_0 6) 1 0) (ite (= away_eff_2_1 6) 1 0) (ite (= away_eff_2_2 6) 1 0) (ite (= away_eff_2_3 6) 1 0) (ite (= away_eff_2_4 6) 1 0))) 1))
(assert (<= (- (+ (ite (= away_eff_0_0 6) 1 0) (ite (= away_eff_0_1 6) 1 0) (ite (= away_eff_0_2 6) 1 0) (ite (= away_eff_0_3 6) 1 0) (ite (= away_eff_0_4 6) 1 0) (ite (= away_eff_1_0 6) 1 0) (ite (= away_eff_1_1 6) 1 0) (ite (= away_eff_1_2 6) 1 0) (ite (= away_eff_1_3 6) 1 0) (ite (= away_eff_1_4 6) 1 0) (ite (= away_eff_2_0 6) 1 0) (ite (= away_eff_2_1 6) 1 0) (ite (= away_eff_2_2 6) 1 0) (ite (= away_eff_2_3 6) 1 0) (ite (= away_eff_2_4 6) 1 0)) (+ (ite (= home_eff_0_0 6) 1 0) (ite (= home_eff_0_1 6) 1 0) (ite (= home_eff_0_2 6) 1 0) (ite (= home_eff_0_3 6) 1 0) (ite (= home_eff_0_4 6) 1 0) (ite (= home_eff_1_0 6) 1 0) (ite (= home_eff_1_1 6) 1 0) (ite (= home_eff_1_2 6) 1 0) (ite (= home_eff_1_3 6) 1 0) (ite (= home_eff_1_4 6) 1 0) (ite (= home_eff_2_0 6) 1 0) (ite (= home_eff_2_1 6) 1 0) (ite (= home_eff_2_2 6) 1 0) (ite (= home_eff_2_3 6) 1 0) (ite (= home_eff_2_4 6) 1 0))) 1))
(check-sat)
(get-model)